BAYES
100
2 2 2 2 2 2 2 2 2 2 2 2 2 2 2 2 2 2 2 2 2 2 2 2 2 2 2 2 2 2 2 2 2 2 2 2 2 2 2 2 2 2 2 2 2 2 2 2 2 2 2 2 2 2 2 2 2 2 2 2 2 2 2 2 2 2 2 2 2 2 2 2 2 2 2 2 2 2 2 2 2 2 2 2 2 2 2 2 2 2 2 2 2 2 2 2 2 2 2 2
100
3 10 1 0
3 11 2 1
3 12 3 2
3 13 4 3
3 14 5 4
3 15 6 5
3 16 7 6
3 17 8 7
3 18 9 8
2 19 9
3 20 11 10
3 21 12 11
3 22 13 12
3 23 14 13
3 24 15 14
3 25 16 15
3 26 17 16
3 27 18 17
3 28 19 18
2 29 19
3 30 21 20
3 31 22 21
3 32 23 22
3 33 24 23
3 34 25 24
3 35 26 25
3 36 27 26
3 37 28 27
3 38 29 28
2 39 29
3 40 31 30
3 41 32 31
3 42 33 32
3 43 34 33
3 44 35 34
3 45 36 35
3 46 37 36
3 47 38 37
3 48 39 38
2 49 39
3 50 41 40
3 51 42 41
3 52 43 42
3 53 44 43
3 54 45 44
3 55 46 45
3 56 47 46
3 57 48 47
3 58 49 48
2 59 49
3 60 51 50
3 61 52 51
3 62 53 52
3 63 54 53
3 64 55 54
3 65 56 55
3 66 57 56
3 67 58 57
3 68 59 58
2 69 59
3 70 61 60
3 71 62 61
3 72 63 62
3 73 64 63
3 74 65 64
3 75 66 65
3 76 67 66
3 77 68 67
3 78 69 68
2 79 69
3 80 71 70
3 81 72 71
3 82 73 72
3 83 74 73
3 84 75 74
3 85 76 75
3 86 77 76
3 87 78 77
3 88 79 78
2 89 79
3 90 81 80
3 91 82 81
3 92 83 82
3 93 84 83
3 94 85 84
3 95 86 85
3 96 87 86
3 97 88 87
3 98 89 88
2 99 89
2 91 90
2 92 91
2 93 92
2 94 93
2 95 94
2 96 95
2 97 96
2 98 97
2 99 98
1  99
8
0 1 0 1 1 0 1 0
8
0.26553933792988205 0.7344606620701181 0.485839300542736 0.514160699457264 0.5934699704329588 0.4065300295670412 0.9876260309518018 0.012373969048198237
8
0 1 0 1 1 0 1 0
8
0 1 0 1 0 1 1 0
8
0.270576445117033 0.7294235548829671 0.23232628806644084 0.7676737119335592 0.35359585214758404 0.6464041478524158 0.527371030641247 0.4726289693587531
8
1 0 1 0 0 1 1 0
8
0 1 1 0 0 1 1 0
8
1 0 1 0 0 1 1 0
8
1 0 0 1 0 1 1 0
4
0 1 1 0
8
0.31522627140373805 0.684773728596262 0.6827173873974337 0.3172826126025663 0.9002549163118294 0.09974508368817053 0.27090726607703897 0.729092733922961
8
0 1 1 0 0 1 1 0
8
0.9620539566926498 0.037946043307350144 0.6486435239777276 0.3513564760222724 0.4792645580687137 0.5207354419312863 0.7804636241551511 0.2195363758448489
8
0 1 0 1 0 1 0 1
8
1 0 1 0 0 1 1 0
8
0 1 1 0 0 1 1 0
8
0 1 0 1 0 1 1 0
8
1 0 1 0 0 1 1 0
8
0 1 1 0 0 1 0 1
4
0 1 0 1
8
1 0 0 1 1 0 1 0
8
0 1 0 1 1 0 0 1
8
0 1 0 1 0 1 0 1
8
0 1 0 1 0 1 0 1
8
0 1 0 1 1 0 0 1
8
0 1 1 0 0 1 0 1
8
0 1 1 0 0 1 1 0
8
0 1 1 0 1 0 1 0
8
1 0 1 0 1 0 1 0
4
0 1 1 0
8
1 0 0 1 1 0 0 1
8
0 1 0 1 1 0 0 1
8
0 1 0 1 1 0 0 1
8
1 0 0 1 1 0 0 1
8
1 0 0 1 0 1 1 0
8
1 0 0 1 1 0 0 1
8
1 0 1 0 1 0 1 0
8
1 0 1 0 0 1 1 0
8
0 1 0 1 0 1 1 0
4
1 0 1 0
8
0 1 0 1 1 0 1 0
8
1 0 1 0 1 0 1 0
8
0 1 1 0 1 0 0 1
8
1 0 0 1 0 1 1 0
8
1 0 0 1 0 1 1 0
8
1 0 1 0 0 1 1 0
8
0 1 0 1 1 0 0 1
8
0.7050353594261161 0.29496464057388394 0.039457653669149335 0.9605423463308507 0.330970939371188 0.669029060628812 0.4515383413749567 0.5484616586250433
8
0 1 1 0 0 1 0 1
4
0 1 1 0
8
0.7611549305389302 0.2388450694610698 0.5608380383359871 0.4391619616640128 0.4004910841112426 0.5995089158887574 0.49685125908396616 0.5031487409160338
8
0 1 1 0 1 0 0 1
8
1 0 1 0 0 1 0 1
8
1 0 0 1 0 1 0 1
8
1 0 0 1 1 0 1 0
8
1 0 0 1 1 0 1 0
8
1 0 1 0 0 1 1 0
8
0 1 0 1 1 0 0 1
8
1 0 1 0 0 1 1 0
4
0 1 1 0
8
1 0 1 0 0 1 0 1
8
1 0 0 1 0 1 1 0
8
1 0 1 0 0 1 0 1
8
0.2986699416660689 0.701330058333931 0.5692501810660147 0.4307498189339854 0.3225807259864318 0.6774192740135682 0.2624618983019427 0.7375381016980572
8
0 1 0 1 1 0 0 1
8
0 1 0 1 0 1 1 0
8
0 1 0 1 1 0 0 1
8
0 1 1 0 0 1 1 0
8
1 0 1 0 0 1 1 0
4
0 1 0 1
8
0 1 0 1 0 1 1 0
8
1 0 1 0 0 1 0 1
8
1 0 0 1 0 1 1 0
8
0.5738778929657005 0.4261221070342996 0.6525965728711236 0.3474034271288764 0.24446786176559865 0.7555321382344014 0.675359200347745 0.32464079965225506
8
1 0 1 0 1 0 0 1
8
0 1 0 1 1 0 1 0
8
1 0 0 1 0 1 0 1
8
1 0 0 1 0 1 0 1
8
1 0 1 0 0 1 1 0
4
0 1 0 1
8
1 0 0 1 1 0 1 0
8
0 1 0 1 1 0 0 1
8
1 0 1 0 1 0 1 0
8
0.1284754314072035 0.8715245685927965 0.256797981297467 0.743202018702533 0.2359971739502059 0.7640028260497941 0.25039836245903524 0.7496016375409648
8
0 1 1 0 1 0 1 0
8
1 0 1 0 1 0 1 0
8
0 1 1 0 1 0 1 0
8
0 1 1 0 0 1 1 0
8
0 1 1 0 1 0 1 0
4
0 1 0 1
4
0 1 0 1
4
0 1 0 1
4
0 1 1 0
4
0 1 0 1
4
0 1 1 0
4
0 1 1 0
4
1 0 0 1
4
1 0 0 1
4
0.4898526252463263 0.5101473747536737 0.37813726503684375 0.6218627349631564
2
0 1
